NAME : block_24.354740.tour
COMMENT : Length = 354740
COMMENT : Found by LKH-3 [Keld Helsgaun] Mon Feb  2 23:13:26 2026
TYPE : TOUR
DIMENSION : 100
TOUR_SECTION
55
43
42
31
21
30
41
40
29
20
13
2
100
1
8
15
14
22
33
32
44
57
56
68
69
78
87
79
70
59
58
45
46
34
23
24
35
47
60
71
80
88
94
95
89
81
72
61
48
36
25
16
9
4
3
5
10
17
26
37
49
62
73
82
90
96
99
97
91
83
74
63
50
38
27
18
11
6
7
12
19
28
39
51
64
75
84
92
98
93
85
86
77
76
65
52
53
66
67
54
-1
EOF
